TOUR_SECTION
1
138
117
53
106
58
31
35
169
23
101
181
16
94
84
14
120
156
198
160
13
49
42
2
201
122
126
7
179
68
188
9
183
159
170
139
83
39
99
162
129
24
150
109
11
143
192
61
22
51
79
60
52
105
90
45
85
62
67
57
104
40
121
43
100
195
8
113
96
66
91
3
125
168
86
185
194
25
115
32
19
59
176
186
124
48
152
33
134
110
64
17
47
30
70
151
74
26
89
130
175
34
171
108
118
80
4
196
114
157
107
123
177
184
82
164
77
15
69
128
200
72
65
46
111
75
6
193
189
92
41
145
191
140
155
132
158
148
21
44
103
131
20
28
73
142
172
10
116
38
163
161
154
147
5
165
127
119
37
136
187
149
178
137
27
93
197
50
180
95
88
167
199
174
56
112
29
133
146
76
81
173
78
153
102
190
12
55
54
18
97
144
87
36
182
141
135
71
63
98
166
-1
EOF